
Gurobi 8.1.1 (linux64, Python) logging started Sat Sep  7 21:51:58 2019

Academic license - for non-commercial use only

Gurobi 8.1.1 (linux64, Python) logging started Sat Sep  7 21:53:10 2019

Academic license - for non-commercial use only

Gurobi 8.1.1 (linux64, Python) logging started Tue Sep 10 00:46:59 2019

Academic license - for non-commercial use only

Gurobi 8.1.1 (linux64, Python) logging started Tue Sep 10 00:47:54 2019

Academic license - for non-commercial use only

Gurobi 8.1.1 (linux64, Python) logging started Tue Sep 10 00:53:37 2019

Academic license - for non-commercial use only

Gurobi 8.1.1 (linux64, Python) logging started Tue Sep 10 01:49:26 2019

Academic license - for non-commercial use only

Gurobi 8.1.1 (linux64, Python) logging started Tue Sep 10 01:51:00 2019

Academic license - for non-commercial use only

Gurobi 8.1.1 (linux64, Python) logging started Tue Sep 10 02:43:07 2019

Academic license - for non-commercial use only

Gurobi 8.1.1 (linux64, Python) logging started Tue Sep 10 13:11:44 2019

Academic license - for non-commercial use only

Gurobi 8.1.1 (linux64, Python) logging started Tue Sep 10 13:12:15 2019

Academic license - for non-commercial use only

Gurobi 8.1.1 (linux64, Python) logging started Tue Sep 10 13:15:45 2019

Academic license - for non-commercial use only

Gurobi 8.1.1 (linux64, Python) logging started Tue Sep 10 13:17:34 2019

Academic license - for non-commercial use only

Gurobi 8.1.1 (linux64, Python) logging started Tue Sep 10 13:24:38 2019

Academic license - for non-commercial use only

Gurobi 8.1.1 (linux64, Python) logging started Tue Sep 10 13:25:19 2019

Academic license - for non-commercial use only

Gurobi 8.1.1 (linux64, Python) logging started Tue Sep 10 14:13:35 2019

Academic license - for non-commercial use only
